#    GLPSOL model for polygon f7e236e6-b513-41c9-b749-38a5fc3dad1d

#Variables
var x_0 >= 0;
var x_1 >= 0;
var x_2 >= 0;
var x_3 >= 0;
var x_4 >= 0;
var x_5 >= 0;
var x_6 >= 0;
var x_7 >= 0;
var x_8 >= 0;
var x_9 >= 0;
var x_10 >= 0;
var x_11 >= 0;
var x_12 >= 0;
var x_13 >= 0;
var x_14 >= 0;
var x_15 >= 0;
var x_16 >= 0;
var x_17 >= 0;
var x_18 >= 0;
var x_19 >= 0;
var x_20 >= 0;
var x_21 >= 0;
var x_22 >= 0;
var x_23 >= 0;
var x_24 >= 0;
var x_25 >= 0;
var x_26 >= 0;
var x_27 >= 0;
var x_28 >= 0;
var x_29 >= 0;
var x_30 >= 0;
var x_31 >= 0;
var x_32 >= 0;
var x_33 >= 0;
var x_34 >= 0;
var x_35 >= 0;
var x_36 >= 0;
var x_37 >= 0;
var x_38 >= 0;
var x_39 >= 0;
var x_40 >= 0;
var x_41 >= 0;
var x_42 >= 0;
var x_43 >= 0;
var x_44 >= 0;
var x_45 >= 0;
var x_46 >= 0;
var x_47 >= 0;
var x_48 >= 0;
var x_49 >= 0;
var x_50 >= 0;
var x_51 >= 0;
var x_52 >= 0;
var x_53 >= 0;
var x_54 >= 0;
var x_55 >= 0;
var x_56 >= 0;
var x_57 >= 0;
var x_58 >= 0;
var x_59 >= 0;
var x_60 >= 0;
var x_61 >= 0;
var x_62 >= 0;
var x_63 >= 0;
var x_64 >= 0;
var x_65 >= 0;
var x_66 >= 0;
var x_67 >= 0;
var x_68 >= 0;
var x_69 >= 0;
var x_70 >= 0;
var x_71 >= 0;
var x_72 >= 0;
var x_73 >= 0;
var x_74 >= 0;
var x_75 >= 0;
var x_76 >= 0;
var x_77 >= 0;
var x_78 >= 0;
var x_79 >= 0;
var x_80 >= 0;
var x_81 >= 0;
var x_82 >= 0;
var x_83 >= 0;
var x_84 >= 0;
var x_85 >= 0;
var x_86 >= 0;
var x_87 >= 0;
var x_88 >= 0;
var x_89 >= 0;
var x_90 >= 0;
var x_91 >= 0;
var x_92 >= 0;
var x_93 >= 0;
var x_94 >= 0;
var x_95 >= 0;
var x_96 >= 0;
var x_97 >= 0;
var x_98 >= 0;
var x_99 >= 0;

#Objective
minimize vertex_guard: x_0 + x_1 + x_2 + x_3 + x_4 + x_5 + x_6 + x_7 + x_8 + x_9 + x_10 + x_11 + x_12 + x_13 + x_14 + x_15 + x_16 + x_17 + x_18 + x_19 + x_20 + x_21 + x_22 + x_23 + x_24 + x_25 + x_26 + x_27 + x_28 + x_29 + x_30 + x_31 + x_32 + x_33 + x_34 + x_35 + x_36 + x_37 + x_38 + x_39 + x_40 + x_41 + x_42 + x_43 + x_44 + x_45 + x_46 + x_47 + x_48 + x_49 + x_50 + x_51 + x_52 + x_53 + x_54 + x_55 + x_56 + x_57 + x_58 + x_59 + x_60 + x_61 + x_62 + x_63 + x_64 + x_65 + x_66 + x_67 + x_68 + x_69 + x_70 + x_71 + x_72 + x_73 + x_74 + x_75 + x_76 + x_77 + x_78 + x_79 + x_80 + x_81 + x_82 + x_83 + x_84 + x_85 + x_86 + x_87 + x_88 + x_89 + x_90 + x_91 + x_92 + x_93 + x_94 + x_95 + x_96 + x_97 + x_98 + x_99;
#Constraints:
s.t. guard_0: x_0 + x_1 + x_3 >= 1;
s.t. guard_1: x_1 + x_2 + x_0 >= 1;
s.t. guard_2: x_2 + x_4 + x_1 + x_3 >= 1;
s.t. guard_3: x_3 + x_6 + x_0 + x_2 + x_4 >= 1;
s.t. guard_4: x_4 + x_5 + x_2 + x_3 >= 1;
s.t. guard_5: x_5 + x_8 + x_4 + x_6 >= 1;
s.t. guard_6: x_6 + x_7 + x_3 + x_5 >= 1;
s.t. guard_7: x_7 + x_10 + x_6 + x_8 >= 1;
s.t. guard_8: x_8 + x_9 + x_5 + x_7 >= 1;
s.t. guard_9: x_9 + x_11 + x_8 + x_10 >= 1;
s.t. guard_10: x_10 + x_12 + x_7 + x_9 + x_11 >= 1;
s.t. guard_11: x_11 + x_15 + x_9 + x_10 + x_12 + x_14 >= 1;
s.t. guard_12: x_12 + x_13 + x_10 + x_11 + x_14 >= 1;
s.t. guard_13: x_13 + x_14 + x_12 >= 1;
s.t. guard_14: x_14 + x_16 + x_13 + x_11 + x_12 + x_15 >= 1;
s.t. guard_15: x_15 + x_18 + x_11 + x_14 + x_16 >= 1;
s.t. guard_16: x_16 + x_17 + x_14 + x_15 >= 1;
s.t. guard_17: x_17 + x_20 + x_16 + x_18 >= 1;
s.t. guard_18: x_18 + x_19 + x_15 + x_17 >= 1;
s.t. guard_19: x_19 + x_21 + x_18 + x_20 >= 1;
s.t. guard_20: x_20 + x_22 + x_17 + x_19 + x_21 >= 1;
s.t. guard_21: x_21 + x_26 + x_19 + x_20 + x_22 >= 1;
s.t. guard_22: x_22 + x_23 + x_20 + x_21 + x_24 >= 1;
s.t. guard_23: x_23 + x_24 + x_22 >= 1;
s.t. guard_24: x_24 + x_25 + x_23 + x_22 + x_26 + x_27 >= 1;
s.t. guard_25: x_25 + x_28 + x_24 + x_26 + x_27 >= 1;
s.t. guard_26: x_26 + x_27 + x_21 + x_24 + x_25 >= 1;
s.t. guard_27: x_27 + x_32 + x_26 + x_24 + x_25 + x_28 >= 1;
s.t. guard_28: x_28 + x_29 + x_25 + x_27 >= 1;
s.t. guard_29: x_29 + x_30 + x_28 + x_31 >= 1;
s.t. guard_30: x_30 + x_31 + x_29 >= 1;
s.t. guard_31: x_31 + x_33 + x_30 + x_29 + x_32 >= 1;
s.t. guard_32: x_32 + x_36 + x_27 + x_31 + x_33 >= 1;
s.t. guard_33: x_33 + x_34 + x_31 + x_32 + x_35 >= 1;
s.t. guard_34: x_34 + x_35 + x_33 >= 1;
s.t. guard_35: x_35 + x_37 + x_34 + x_33 + x_36 >= 1;
s.t. guard_36: x_36 + x_41 + x_32 + x_35 + x_37 >= 1;
s.t. guard_37: x_37 + x_38 + x_35 + x_36 + x_39 + x_40 >= 1;
s.t. guard_38: x_38 + x_39 + x_37 + x_40 >= 1;
s.t. guard_39: x_39 + x_40 + x_38 + x_37 >= 1;
s.t. guard_40: x_40 + x_42 + x_39 + x_37 + x_38 + x_41 >= 1;
s.t. guard_41: x_41 + x_43 + x_36 + x_40 + x_42 >= 1;
s.t. guard_42: x_42 + x_46 + x_40 + x_41 + x_43 >= 1;
s.t. guard_43: x_43 + x_44 + x_41 + x_42 >= 1;
s.t. guard_44: x_44 + x_45 + x_43 + x_46 >= 1;
s.t. guard_45: x_45 + x_47 + x_44 + x_46 >= 1;
s.t. guard_46: x_46 + x_49 + x_42 + x_44 + x_45 + x_47 + x_48 >= 1;
s.t. guard_47: x_47 + x_48 + x_45 + x_46 >= 1;
s.t. guard_48: x_48 + x_51 + x_47 + x_46 + x_49 >= 1;
s.t. guard_49: x_49 + x_50 + x_46 + x_48 >= 1;
s.t. guard_50: x_50 + x_52 + x_49 + x_51 >= 1;
s.t. guard_51: x_51 + x_53 + x_48 + x_50 + x_52 >= 1;
s.t. guard_52: x_52 + x_54 + x_50 + x_51 + x_53 >= 1;
s.t. guard_53: x_53 + x_59 + x_51 + x_52 + x_54 >= 1;
s.t. guard_54: x_54 + x_55 + x_52 + x_53 + x_56 >= 1;
s.t. guard_55: x_55 + x_56 + x_54 >= 1;
s.t. guard_56: x_56 + x_57 + x_55 + x_54 + x_58 + x_59 >= 1;
s.t. guard_57: x_57 + x_58 + x_56 >= 1;
s.t. guard_58: x_58 + x_61 + x_57 + x_56 + x_59 + x_60 >= 1;
s.t. guard_59: x_59 + x_60 + x_53 + x_56 + x_58 >= 1;
s.t. guard_60: x_60 + x_63 + x_59 + x_58 + x_61 >= 1;
s.t. guard_61: x_61 + x_62 + x_58 + x_60 + x_63 >= 1;
s.t. guard_62: x_62 + x_64 + x_61 + x_63 >= 1;
s.t. guard_63: x_63 + x_65 + x_60 + x_61 + x_62 + x_64 >= 1;
s.t. guard_64: x_64 + x_66 + x_62 + x_63 + x_65 >= 1;
s.t. guard_65: x_65 + x_71 + x_63 + x_64 + x_66 >= 1;
s.t. guard_66: x_66 + x_67 + x_64 + x_65 + x_68 >= 1;
s.t. guard_67: x_67 + x_68 + x_66 >= 1;
s.t. guard_68: x_68 + x_69 + x_67 + x_66 + x_70 + x_71 >= 1;
s.t. guard_69: x_69 + x_70 + x_68 >= 1;
s.t. guard_70: x_70 + x_72 + x_69 + x_68 + x_71 >= 1;
s.t. guard_71: x_71 + x_74 + x_65 + x_68 + x_70 + x_72 + x_73 >= 1;
s.t. guard_72: x_72 + x_73 + x_70 + x_71 >= 1;
s.t. guard_73: x_73 + x_77 + x_72 + x_71 + x_74 >= 1;
s.t. guard_74: x_74 + x_75 + x_71 + x_73 >= 1;
s.t. guard_75: x_75 + x_76 + x_74 >= 1;
s.t. guard_76: x_76 + x_78 + x_75 + x_77 >= 1;
s.t. guard_77: x_77 + x_80 + x_73 + x_76 + x_78 >= 1;
s.t. guard_78: x_78 + x_79 + x_76 + x_77 >= 1;
s.t. guard_79: x_79 + x_82 + x_78 + x_80 >= 1;
s.t. guard_80: x_80 + x_81 + x_77 + x_79 >= 1;
s.t. guard_81: x_81 + x_84 + x_80 + x_82 >= 1;
s.t. guard_82: x_82 + x_83 + x_79 + x_81 + x_84 + x_85 >= 1;
s.t. guard_83: x_83 + x_86 + x_82 + x_84 + x_85 >= 1;
s.t. guard_84: x_84 + x_85 + x_81 + x_82 + x_83 >= 1;
s.t. guard_85: x_85 + x_87 + x_84 + x_82 + x_83 + x_86 >= 1;
s.t. guard_86: x_86 + x_88 + x_83 + x_85 + x_87 >= 1;
s.t. guard_87: x_87 + x_89 + x_85 + x_86 + x_88 >= 1;
s.t. guard_88: x_88 + x_90 + x_86 + x_87 + x_89 >= 1;
s.t. guard_89: x_89 + x_91 + x_87 + x_88 + x_90 >= 1;
s.t. guard_90: x_90 + x_99 + x_88 + x_89 + x_91 + x_92 >= 1;
s.t. guard_91: x_91 + x_92 + x_89 + x_90 >= 1;
s.t. guard_92: x_92 + x_93 + x_91 + x_90 + x_94 + x_98 >= 1;
s.t. guard_93: x_93 + x_94 + x_92 >= 1;
s.t. guard_94: x_94 + x_95 + x_93 + x_92 + x_96 + x_97 + x_98 >= 1;
s.t. guard_95: x_95 + x_96 + x_94 >= 1;
s.t. guard_96: x_96 + x_97 + x_95 + x_94 + x_98 >= 1;
s.t. guard_97: x_97 + x_98 + x_96 + x_94 >= 1;
s.t. guard_98: x_98 + x_99 + x_97 + x_92 + x_94 + x_96 >= 1;
s.t. guard_99: x_99 + x_90 + x_98 >= 1;
end;